c not original file ! May have been modified for weighted vertex coloring problem (edges and vertices stay the same only weights may have been moved to an other file)
p edge 281 3553
e 1 2
e 1 3
e 1 4
e 1 5
e 1 6
e 1 7
e 1 8
e 1 9
e 1 10
e 1 11
e 1 12
e 1 13
e 1 27
e 1 40
e 1 82
e 1 99
e 1 122
e 1 136
e 1 167
e 1 179
e 1 213
e 1 224
e 1 238
e 1 253
e 2 3
e 2 4
e 2 5
e 2 6
e 2 7
e 2 8
e 2 9
e 2 10
e 2 11
e 2 12
e 2 16
e 2 29
e 2 43
e 2 58
e 2 70
e 2 84
e 2 101
e 2 124
e 2 138
e 2 152
e 2 181
e 2 202
e 2 226
e 2 269
e 3 4
e 3 5
e 3 6
e 3 7
e 3 8
e 3 9
e 3 10
e 3 11
e 3 12
e 3 31
e 3 45
e 3 60
e 3 86
e 3 112
e 3 125
e 3 169
e 3 182
e 3 194
e 3 241
e 3 271
e 4 5
e 4 6
e 4 7
e 4 8
e 4 9
e 4 10
e 4 11
e 4 12
e 4 17
e 4 62
e 4 72
e 4 87
e 4 114
e 4 155
e 4 195
e 4 204
e 4 229
e 4 255
e 4 273
e 5 6
e 5 7
e 5 8
e 5 9
e 5 10
e 5 11
e 5 12
e 5 18
e 5 33
e 5 47
e 5 63
e 5 73
e 5 115
e 5 126
e 5 141
e 5 205
e 5 216
e 5 243
e 5 256
e 6 7
e 6 8
e 6 9
e 6 10
e 6 11
e 6 12
e 6 48
e 6 64
e 6 88
e 6 127
e 6 171
e 6 184
e 6 196
e 6 206
e 6 217
e 6 230
e 6 257
e 6 274
e 7 8
e 7 9
e 7 10
e 7 11
e 7 12
e 7 20
e 7 35
e 7 74
e 7 90
e 7 104
e 7 116
e 7 129
e 7 143
e 7 157
e 7 173
e 7 186
e 7 219
e 7 245
e 7 259
e 7 275
e 8 9
e 8 10
e 8 11
e 8 12
e 8 21
e 8 36
e 8 65
e 8 75
e 8 91
e 8 105
e 8 117
e 8 130
e 8 144
e 8 158
e 8 174
e 8 187
e 8 207
e 8 232
e 8 246
e 8 260
e 9 10
e 9 11
e 9 12
e 9 66
e 9 76
e 9 92
e 9 106
e 9 118
e 9 131
e 9 145
e 9 159
e 9 175
e 9 188
e 9 208
e 9 233
e 9 261
e 9 276
e 10 11
e 10 12
e 10 23
e 10 38
e 10 52
e 10 68
e 10 78
e 10 94
e 10 108
e 10 119
e 10 162
e 10 177
e 10 197
e 10 210
e 10 221
e 10 248
e 11 12
e 11 24
e 11 53
e 11 79
e 11 95
e 11 120
e 11 133
e 11 147
e 11 163
e 11 198
e 11 211
e 11 236
e 11 249
e 11 264
e 11 279
e 12 55
e 12 69
e 12 97
e 12 134
e 12 148
e 12 165
e 12 190
e 12 212
e 12 223
e 12 251
e 12 266
e 12 281
e 13 14
e 13 15
e 13 16
e 13 17
e 13 18
e 13 19
e 13 20
e 13 21
e 13 22
e 13 23
e 13 24
e 13 25
e 13 26
e 13 27
e 13 40
e 13 82
e 13 99
e 13 122
e 13 136
e 13 167
e 13 179
e 13 213
e 13 224
e 13 238
e 13 253
e 14 15
e 14 16
e 14 17
e 14 18
e 14 19
e 14 20
e 14 21
e 14 22
e 14 23
e 14 24
e 14 25
e 14 26
e 14 41
e 14 83
e 14 100
e 14 110
e 14 137
e 14 150
e 14 192
e 14 201
e 14 239
e 14 267
e 15 16
e 15 17
e 15 18
e 15 19
e 15 20
e 15 21
e 15 22
e 15 23
e 15 24
e 15 25
e 15 26
e 15 28
e 15 42
e 15 57
e 15 111
e 15 123
e 15 151
e 15 180
e 15 225
e 15 254
e 15 268
e 16 17
e 16 18
e 16 19
e 16 20
e 16 21
e 16 22
e 16 23
e 16 24
e 16 25
e 16 26
e 16 29
e 16 43
e 16 58
e 16 70
e 16 84
e 16 101
e 16 124
e 16 138
e 16 152
e 16 181
e 16 202
e 16 226
e 16 269
e 17 18
e 17 19
e 17 20
e 17 21
e 17 22
e 17 23
e 17 24
e 17 25
e 17 26
e 17 62
e 17 72
e 17 87
e 17 114
e 17 155
e 17 195
e 17 204
e 17 229
e 17 255
e 17 273
e 18 19
e 18 20
e 18 21
e 18 22
e 18 23
e 18 24
e 18 25
e 18 26
e 18 33
e 18 47
e 18 63
e 18 73
e 18 115
e 18 126
e 18 141
e 18 205
e 18 216
e 18 243
e 18 256
e 19 20
e 19 21
e 19 22
e 19 23
e 19 24
e 19 25
e 19 26
e 19 34
e 19 49
e 19 89
e 19 103
e 19 128
e 19 142
e 19 156
e 19 172
e 19 185
e 19 218
e 19 231
e 19 244
e 19 258
e 20 21
e 20 22
e 20 23
e 20 24
e 20 25
e 20 26
e 20 35
e 20 74
e 20 90
e 20 104
e 20 116
e 20 129
e 20 143
e 20 157
e 20 173
e 20 186
e 20 219
e 20 245
e 20 259
e 20 275
e 21 22
e 21 23
e 21 24
e 21 25
e 21 26
e 21 36
e 21 65
e 21 75
e 21 91
e 21 105
e 21 117
e 21 130
e 21 144
e 21 158
e 21 174
e 21 187
e 21 207
e 21 232
e 21 246
e 21 260
e 22 23
e 22 24
e 22 25
e 22 26
e 22 50
e 22 67
e 22 93
e 22 132
e 22 160
e 22 176
e 22 189
e 22 209
e 22 234
e 22 262
e 22 277
e 23 24
e 23 25
e 23 26
e 23 38
e 23 52
e 23 68
e 23 78
e 23 94
e 23 108
e 23 119
e 23 162
e 23 177
e 23 197
e 23 210
e 23 221
e 23 248
e 24 25
e 24 26
e 24 53
e 24 79
e 24 95
e 24 120
e 24 133
e 24 147
e 24 163
e 24 198
e 24 211
e 24 236
e 24 249
e 24 264
e 24 279
e 25 26
e 25 39
e 25 54
e 25 80
e 25 96
e 25 109
e 25 121
e 25 164
e 25 178
e 25 199
e 25 222
e 25 250
e 25 265
e 25 280
e 26 56
e 26 81
e 26 98
e 26 135
e 26 149
e 26 166
e 26 191
e 26 200
e 26 237
e 26 252
e 27 28
e 27 29
e 27 30
e 27 31
e 27 32
e 27 33
e 27 34
e 27 35
e 27 36
e 27 37
e 27 38
e 27 39
e 27 40
e 27 82
e 27 99
e 27 122
e 27 136
e 27 167
e 27 179
e 27 213
e 27 224
e 27 238
e 27 253
e 28 29
e 28 30
e 28 31
e 28 32
e 28 33
e 28 34
e 28 35
e 28 36
e 28 37
e 28 38
e 28 39
e 28 42
e 28 57
e 28 111
e 28 123
e 28 151
e 28 180
e 28 225
e 28 254
e 28 268
e 29 30
e 29 31
e 29 32
e 29 33
e 29 34
e 29 35
e 29 36
e 29 37
e 29 38
e 29 39
e 29 43
e 29 58
e 29 70
e 29 84
e 29 101
e 29 124
e 29 138
e 29 152
e 29 181
e 29 202
e 29 226
e 29 269
e 30 31
e 30 32
e 30 33
e 30 34
e 30 35
e 30 36
e 30 37
e 30 38
e 30 39
e 30 44
e 30 59
e 30 71
e 30 85
e 30 139
e 30 153
e 30 168
e 30 193
e 30 203
e 30 214
e 30 227
e 30 240
e 30 270
e 31 32
e 31 33
e 31 34
e 31 35
e 31 36
e 31 37
e 31 38
e 31 39
e 31 45
e 31 60
e 31 86
e 31 112
e 31 125
e 31 169
e 31 182
e 31 194
e 31 241
e 31 271
e 32 33
e 32 34
e 32 35
e 32 36
e 32 37
e 32 38
e 32 39
e 32 46
e 32 61
e 32 102
e 32 113
e 32 140
e 32 154
e 32 170
e 32 183
e 32 215
e 32 228
e 32 242
e 32 272
e 33 34
e 33 35
e 33 36
e 33 37
e 33 38
e 33 39
e 33 47
e 33 63
e 33 73
e 33 115
e 33 126
e 33 141
e 33 205
e 33 216
e 33 243
e 33 256
e 34 35
e 34 36
e 34 37
e 34 38
e 34 39
e 34 49
e 34 89
e 34 103
e 34 128
e 34 142
e 34 156
e 34 172
e 34 185
e 34 218
e 34 231
e 34 244
e 34 258
e 35 36
e 35 37
e 35 38
e 35 39
e 35 74
e 35 90
e 35 104
e 35 116
e 35 129
e 35 143
e 35 157
e 35 173
e 35 186
e 35 219
e 35 245
e 35 259
e 35 275
e 36 37
e 36 38
e 36 39
e 36 65
e 36 75
e 36 91
e 36 105
e 36 117
e 36 130
e 36 144
e 36 158
e 36 174
e 36 187
e 36 207
e 36 232
e 36 246
e 36 260
e 37 38
e 37 39
e 37 51
e 37 77
e 37 107
e 37 146
e 37 161
e 37 220
e 37 235
e 37 247
e 37 263
e 37 278
e 38 39
e 38 52
e 38 68
e 38 78
e 38 94
e 38 108
e 38 119
e 38 162
e 38 177
e 38 197
e 38 210
e 38 221
e 38 248
e 39 54
e 39 80
e 39 96
e 39 109
e 39 121
e 39 164
e 39 178
e 39 199
e 39 222
e 39 250
e 39 265
e 39 280
e 40 41
e 40 42
e 40 43
e 40 44
e 40 45
e 40 46
e 40 47
e 40 48
e 40 49
e 40 50
e 40 51
e 40 52
e 40 53
e 40 54
e 40 55
e 40 56
e 40 82
e 40 99
e 40 122
e 40 136
e 40 167
e 40 179
e 40 213
e 40 224
e 40 238
e 40 253
e 41 42
e 41 43
e 41 44
e 41 45
e 41 46
e 41 47
e 41 48
e 41 49
e 41 50
e 41 51
e 41 52
e 41 53
e 41 54
e 41 55
e 41 56
e 41 83
e 41 100
e 41 110
e 41 137
e 41 150
e 41 192
e 41 201
e 41 239
e 41 267
e 42 43
e 42 44
e 42 45
e 42 46
e 42 47
e 42 48
e 42 49
e 42 50
e 42 51
e 42 52
e 42 53
e 42 54
e 42 55
e 42 56
e 42 57
e 42 111
e 42 123
e 42 151
e 42 180
e 42 225
e 42 254
e 42 268
e 43 44
e 43 45
e 43 46
e 43 47
e 43 48
e 43 49
e 43 50
e 43 51
e 43 52
e 43 53
e 43 54
e 43 55
e 43 56
e 43 58
e 43 70
e 43 84
e 43 101
e 43 124
e 43 138
e 43 152
e 43 181
e 43 202
e 43 226
e 43 269
e 44 45
e 44 46
e 44 47
e 44 48
e 44 49
e 44 50
e 44 51
e 44 52
e 44 53
e 44 54
e 44 55
e 44 56
e 44 59
e 44 71
e 44 85
e 44 139
e 44 153
e 44 168
e 44 193
e 44 203
e 44 214
e 44 227
e 44 240
e 44 270
e 45 46
e 45 47
e 45 48
e 45 49
e 45 50
e 45 51
e 45 52
e 45 53
e 45 54
e 45 55
e 45 56
e 45 60
e 45 86
e 45 112
e 45 125
e 45 169
e 45 182
e 45 194
e 45 241
e 45 271
e 46 47
e 46 48
e 46 49
e 46 50
e 46 51
e 46 52
e 46 53
e 46 54
e 46 55
e 46 56
e 46 61
e 46 102
e 46 113
e 46 140
e 46 154
e 46 170
e 46 183
e 46 215
e 46 228
e 46 242
e 46 272
e 47 48
e 47 49
e 47 50
e 47 51
e 47 52
e 47 53
e 47 54
e 47 55
e 47 56
e 47 63
e 47 73
e 47 115
e 47 126
e 47 141
e 47 205
e 47 216
e 47 243
e 47 256
e 48 49
e 48 50
e 48 51
e 48 52
e 48 53
e 48 54
e 48 55
e 48 56
e 48 64
e 48 88
e 48 127
e 48 171
e 48 184
e 48 196
e 48 206
e 48 217
e 48 230
e 48 257
e 48 274
e 49 50
e 49 51
e 49 52
e 49 53
e 49 54
e 49 55
e 49 56
e 49 89
e 49 103
e 49 128
e 49 142
e 49 156
e 49 172
e 49 185
e 49 218
e 49 231
e 49 244
e 49 258
e 50 51
e 50 52
e 50 53
e 50 54
e 50 55
e 50 56
e 50 67
e 50 93
e 50 132
e 50 160
e 50 176
e 50 189
e 50 209
e 50 234
e 50 262
e 50 277
e 51 52
e 51 53
e 51 54
e 51 55
e 51 56
e 51 77
e 51 107
e 51 146
e 51 161
e 51 220
e 51 235
e 51 247
e 51 263
e 51 278
e 52 53
e 52 54
e 52 55
e 52 56
e 52 68
e 52 78
e 52 94
e 52 108
e 52 119
e 52 162
e 52 177
e 52 197
e 52 210
e 52 221
e 52 248
e 53 54
e 53 55
e 53 56
e 53 79
e 53 95
e 53 120
e 53 133
e 53 147
e 53 163
e 53 198
e 53 211
e 53 236
e 53 249
e 53 264
e 53 279
e 54 55
e 54 56
e 54 80
e 54 96
e 54 109
e 54 121
e 54 164
e 54 178
e 54 199
e 54 222
e 54 250
e 54 265
e 54 280
e 55 56
e 55 69
e 55 97
e 55 134
e 55 148
e 55 165
e 55 190
e 55 212
e 55 223
e 55 251
e 55 266
e 55 281
e 56 81
e 56 98
e 56 135
e 56 149
e 56 166
e 56 191
e 56 200
e 56 237
e 56 252
e 57 58
e 57 59
e 57 60
e 57 61
e 57 62
e 57 63
e 57 64
e 57 65
e 57 66
e 57 67
e 57 68
e 57 69
e 57 111
e 57 123
e 57 151
e 57 180
e 57 225
e 57 254
e 57 268
e 58 59
e 58 60
e 58 61
e 58 62
e 58 63
e 58 64
e 58 65
e 58 66
e 58 67
e 58 68
e 58 69
e 58 70
e 58 84
e 58 101
e 58 124
e 58 138
e 58 152
e 58 181
e 58 202
e 58 226
e 58 269
e 59 60
e 59 61
e 59 62
e 59 63
e 59 64
e 59 65
e 59 66
e 59 67
e 59 68
e 59 69
e 59 71
e 59 85
e 59 139
e 59 153
e 59 168
e 59 193
e 59 203
e 59 214
e 59 227
e 59 240
e 59 270
e 60 61
e 60 62
e 60 63
e 60 64
e 60 65
e 60 66
e 60 67
e 60 68
e 60 69
e 60 86
e 60 112
e 60 125
e 60 169
e 60 182
e 60 194
e 60 241
e 60 271
e 61 62
e 61 63
e 61 64
e 61 65
e 61 66
e 61 67
e 61 68
e 61 69
e 61 102
e 61 113
e 61 140
e 61 154
e 61 170
e 61 183
e 61 215
e 61 228
e 61 242
e 61 272
e 62 63
e 62 64
e 62 65
e 62 66
e 62 67
e 62 68
e 62 69
e 62 72
e 62 87
e 62 114
e 62 155
e 62 195
e 62 204
e 62 229
e 62 255
e 62 273
e 63 64
e 63 65
e 63 66
e 63 67
e 63 68
e 63 69
e 63 73
e 63 115
e 63 126
e 63 141
e 63 205
e 63 216
e 63 243
e 63 256
e 64 65
e 64 66
e 64 67
e 64 68
e 64 69
e 64 88
e 64 127
e 64 171
e 64 184
e 64 196
e 64 206
e 64 217
e 64 230
e 64 257
e 64 274
e 65 66
e 65 67
e 65 68
e 65 69
e 65 75
e 65 91
e 65 105
e 65 117
e 65 130
e 65 144
e 65 158
e 65 174
e 65 187
e 65 207
e 65 232
e 65 246
e 65 260
e 66 67
e 66 68
e 66 69
e 66 76
e 66 92
e 66 106
e 66 118
e 66 131
e 66 145
e 66 159
e 66 175
e 66 188
e 66 208
e 66 233
e 66 261
e 66 276
e 67 68
e 67 69
e 67 93
e 67 132
e 67 160
e 67 176
e 67 189
e 67 209
e 67 234
e 67 262
e 67 277
e 68 69
e 68 78
e 68 94
e 68 108
e 68 119
e 68 162
e 68 177
e 68 197
e 68 210
e 68 221
e 68 248
e 69 97
e 69 134
e 69 148
e 69 165
e 69 190
e 69 212
e 69 223
e 69 251
e 69 266
e 69 281
e 70 71
e 70 72
e 70 73
e 70 74
e 70 75
e 70 76
e 70 77
e 70 78
e 70 79
e 70 80
e 70 81
e 70 84
e 70 101
e 70 124
e 70 138
e 70 152
e 70 181
e 70 202
e 70 226
e 70 269
e 71 72
e 71 73
e 71 74
e 71 75
e 71 76
e 71 77
e 71 78
e 71 79
e 71 80
e 71 81
e 71 85
e 71 139
e 71 153
e 71 168
e 71 193
e 71 203
e 71 214
e 71 227
e 71 240
e 71 270
e 72 73
e 72 74
e 72 75
e 72 76
e 72 77
e 72 78
e 72 79
e 72 80
e 72 81
e 72 87
e 72 114
e 72 155
e 72 195
e 72 204
e 72 229
e 72 255
e 72 273
e 73 74
e 73 75
e 73 76
e 73 77
e 73 78
e 73 79
e 73 80
e 73 81
e 73 115
e 73 126
e 73 141
e 73 205
e 73 216
e 73 243
e 73 256
e 74 75
e 74 76
e 74 77
e 74 78
e 74 79
e 74 80
e 74 81
e 74 90
e 74 104
e 74 116
e 74 129
e 74 143
e 74 157
e 74 173
e 74 186
e 74 219
e 74 245
e 74 259
e 74 275
e 75 76
e 75 77
e 75 78
e 75 79
e 75 80
e 75 81
e 75 91
e 75 105
e 75 117
e 75 130
e 75 144
e 75 158
e 75 174
e 75 187
e 75 207
e 75 232
e 75 246
e 75 260
e 76 77
e 76 78
e 76 79
e 76 80
e 76 81
e 76 92
e 76 106
e 76 118
e 76 131
e 76 145
e 76 159
e 76 175
e 76 188
e 76 208
e 76 233
e 76 261
e 76 276
e 77 78
e 77 79
e 77 80
e 77 81
e 77 107
e 77 146
e 77 161
e 77 220
e 77 235
e 77 247
e 77 263
e 77 278
e 78 79
e 78 80
e 78 81
e 78 94
e 78 108
e 78 119
e 78 162
e 78 177
e 78 197
e 78 210
e 78 221
e 78 248
e 79 80
e 79 81
e 79 95
e 79 120
e 79 133
e 79 147
e 79 163
e 79 198
e 79 211
e 79 236
e 79 249
e 79 264
e 79 279
e 80 81
e 80 96
e 80 109
e 80 121
e 80 164
e 80 178
e 80 199
e 80 222
e 80 250
e 80 265
e 80 280
e 81 98
e 81 135
e 81 149
e 81 166
e 81 191
e 81 200
e 81 237
e 81 252
e 82 83
e 82 84
e 82 85
e 82 86
e 82 87
e 82 88
e 82 89
e 82 90
e 82 91
e 82 92
e 82 93
e 82 94
e 82 95
e 82 96
e 82 97
e 82 98
e 82 99
e 82 122
e 82 136
e 82 167
e 82 179
e 82 213
e 82 224
e 82 238
e 82 253
e 83 84
e 83 85
e 83 86
e 83 87
e 83 88
e 83 89
e 83 90
e 83 91
e 83 92
e 83 93
e 83 94
e 83 95
e 83 96
e 83 97
e 83 98
e 83 100
e 83 110
e 83 137
e 83 150
e 83 192
e 83 201
e 83 239
e 83 267
e 84 85
e 84 86
e 84 87
e 84 88
e 84 89
e 84 90
e 84 91
e 84 92
e 84 93
e 84 94
e 84 95
e 84 96
e 84 97
e 84 98
e 84 101
e 84 124
e 84 138
e 84 152
e 84 181
e 84 202
e 84 226
e 84 269
e 85 86
e 85 87
e 85 88
e 85 89
e 85 90
e 85 91
e 85 92
e 85 93
e 85 94
e 85 95
e 85 96
e 85 97
e 85 98
e 85 139
e 85 153
e 85 168
e 85 193
e 85 203
e 85 214
e 85 227
e 85 240
e 85 270
e 86 87
e 86 88
e 86 89
e 86 90
e 86 91
e 86 92
e 86 93
e 86 94
e 86 95
e 86 96
e 86 97
e 86 98
e 86 112
e 86 125
e 86 169
e 86 182
e 86 194
e 86 241
e 86 271
e 87 88
e 87 89
e 87 90
e 87 91
e 87 92
e 87 93
e 87 94
e 87 95
e 87 96
e 87 97
e 87 98
e 87 114
e 87 155
e 87 195
e 87 204
e 87 229
e 87 255
e 87 273
e 88 89
e 88 90
e 88 91
e 88 92
e 88 93
e 88 94
e 88 95
e 88 96
e 88 97
e 88 98
e 88 127
e 88 171
e 88 184
e 88 196
e 88 206
e 88 217
e 88 230
e 88 257
e 88 274
e 89 90
e 89 91
e 89 92
e 89 93
e 89 94
e 89 95
e 89 96
e 89 97
e 89 98
e 89 103
e 89 128
e 89 142
e 89 156
e 89 172
e 89 185
e 89 218
e 89 231
e 89 244
e 89 258
e 90 91
e 90 92
e 90 93
e 90 94
e 90 95
e 90 96
e 90 97
e 90 98
e 90 104
e 90 116
e 90 129
e 90 143
e 90 157
e 90 173
e 90 186
e 90 219
e 90 245
e 90 259
e 90 275
e 91 92
e 91 93
e 91 94
e 91 95
e 91 96
e 91 97
e 91 98
e 91 105
e 91 117
e 91 130
e 91 144
e 91 158
e 91 174
e 91 187
e 91 207
e 91 232
e 91 246
e 91 260
e 92 93
e 92 94
e 92 95
e 92 96
e 92 97
e 92 98
e 92 106
e 92 118
e 92 131
e 92 145
e 92 159
e 92 175
e 92 188
e 92 208
e 92 233
e 92 261
e 92 276
e 93 94
e 93 95
e 93 96
e 93 97
e 93 98
e 93 132
e 93 160
e 93 176
e 93 189
e 93 209
e 93 234
e 93 262
e 93 277
e 94 95
e 94 96
e 94 97
e 94 98
e 94 108
e 94 119
e 94 162
e 94 177
e 94 197
e 94 210
e 94 221
e 94 248
e 95 96
e 95 97
e 95 98
e 95 120
e 95 133
e 95 147
e 95 163
e 95 198
e 95 211
e 95 236
e 95 249
e 95 264
e 95 279
e 96 97
e 96 98
e 96 109
e 96 121
e 96 164
e 96 178
e 96 199
e 96 222
e 96 250
e 96 265
e 96 280
e 97 98
e 97 134
e 97 148
e 97 165
e 97 190
e 97 212
e 97 223
e 97 251
e 97 266
e 97 281
e 98 135
e 98 149
e 98 166
e 98 191
e 98 200
e 98 237
e 98 252
e 99 100
e 99 101
e 99 102
e 99 103
e 99 104
e 99 105
e 99 106
e 99 107
e 99 108
e 99 109
e 99 122
e 99 136
e 99 167
e 99 179
e 99 213
e 99 224
e 99 238
e 99 253
e 100 101
e 100 102
e 100 103
e 100 104
e 100 105
e 100 106
e 100 107
e 100 108
e 100 109
e 100 110
e 100 137
e 100 150
e 100 192
e 100 201
e 100 239
e 100 267
e 101 102
e 101 103
e 101 104
e 101 105
e 101 106
e 101 107
e 101 108
e 101 109
e 101 124
e 101 138
e 101 152
e 101 181
e 101 202
e 101 226
e 101 269
e 102 103
e 102 104
e 102 105
e 102 106
e 102 107
e 102 108
e 102 109
e 102 113
e 102 140
e 102 154
e 102 170
e 102 183
e 102 215
e 102 228
e 102 242
e 102 272
e 103 104
e 103 105
e 103 106
e 103 107
e 103 108
e 103 109
e 103 128
e 103 142
e 103 156
e 103 172
e 103 185
e 103 218
e 103 231
e 103 244
e 103 258
e 104 105
e 104 106
e 104 107
e 104 108
e 104 109
e 104 116
e 104 129
e 104 143
e 104 157
e 104 173
e 104 186
e 104 219
e 104 245
e 104 259
e 104 275
e 105 106
e 105 107
e 105 108
e 105 109
e 105 117
e 105 130
e 105 144
e 105 158
e 105 174
e 105 187
e 105 207
e 105 232
e 105 246
e 105 260
e 106 107
e 106 108
e 106 109
e 106 118
e 106 131
e 106 145
e 106 159
e 106 175
e 106 188
e 106 208
e 106 233
e 106 261
e 106 276
e 107 108
e 107 109
e 107 146
e 107 161
e 107 220
e 107 235
e 107 247
e 107 263
e 107 278
e 108 109
e 108 119
e 108 162
e 108 177
e 108 197
e 108 210
e 108 221
e 108 248
e 109 121
e 109 164
e 109 178
e 109 199
e 109 222
e 109 250
e 109 265
e 109 280
e 110 111
e 110 112
e 110 113
e 110 114
e 110 115
e 110 116
e 110 117
e 110 118
e 110 119
e 110 120
e 110 121
e 110 137
e 110 150
e 110 192
e 110 201
e 110 239
e 110 267
e 111 112
e 111 113
e 111 114
e 111 115
e 111 116
e 111 117
e 111 118
e 111 119
e 111 120
e 111 121
e 111 123
e 111 151
e 111 180
e 111 225
e 111 254
e 111 268
e 112 113
e 112 114
e 112 115
e 112 116
e 112 117
e 112 118
e 112 119
e 112 120
e 112 121
e 112 125
e 112 169
e 112 182
e 112 194
e 112 241
e 112 271
e 113 114
e 113 115
e 113 116
e 113 117
e 113 118
e 113 119
e 113 120
e 113 121
e 113 140
e 113 154
e 113 170
e 113 183
e 113 215
e 113 228
e 113 242
e 113 272
e 114 115
e 114 116
e 114 117
e 114 118
e 114 119
e 114 120
e 114 121
e 114 155
e 114 195
e 114 204
e 114 229
e 114 255
e 114 273
e 115 116
e 115 117
e 115 118
e 115 119
e 115 120
e 115 121
e 115 126
e 115 141
e 115 205
e 115 216
e 115 243
e 115 256
e 116 117
e 116 118
e 116 119
e 116 120
e 116 121
e 116 129
e 116 143
e 116 157
e 116 173
e 116 186
e 116 219
e 116 245
e 116 259
e 116 275
e 117 118
e 117 119
e 117 120
e 117 121
e 117 130
e 117 144
e 117 158
e 117 174
e 117 187
e 117 207
e 117 232
e 117 246
e 117 260
e 118 119
e 118 120
e 118 121
e 118 131
e 118 145
e 118 159
e 118 175
e 118 188
e 118 208
e 118 233
e 118 261
e 118 276
e 119 120
e 119 121
e 119 162
e 119 177
e 119 197
e 119 210
e 119 221
e 119 248
e 120 121
e 120 133
e 120 147
e 120 163
e 120 198
e 120 211
e 120 236
e 120 249
e 120 264
e 120 279
e 121 164
e 121 178
e 121 199
e 121 222
e 121 250
e 121 265
e 121 280
e 122 123
e 122 124
e 122 125
e 122 126
e 122 127
e 122 128
e 122 129
e 122 130
e 122 131
e 122 132
e 122 133
e 122 134
e 122 135
e 122 136
e 122 167
e 122 179
e 122 213
e 122 224
e 122 238
e 122 253
e 123 124
e 123 125
e 123 126
e 123 127
e 123 128
e 123 129
e 123 130
e 123 131
e 123 132
e 123 133
e 123 134
e 123 135
e 123 151
e 123 180
e 123 225
e 123 254
e 123 268
e 124 125
e 124 126
e 124 127
e 124 128
e 124 129
e 124 130
e 124 131
e 124 132
e 124 133
e 124 134
e 124 135
e 124 138
e 124 152
e 124 181
e 124 202
e 124 226
e 124 269
e 125 126
e 125 127
e 125 128
e 125 129
e 125 130
e 125 131
e 125 132
e 125 133
e 125 134
e 125 135
e 125 169
e 125 182
e 125 194
e 125 241
e 125 271
e 126 127
e 126 128
e 126 129
e 126 130
e 126 131
e 126 132
e 126 133
e 126 134
e 126 135
e 126 141
e 126 205
e 126 216
e 126 243
e 126 256
e 127 128
e 127 129
e 127 130
e 127 131
e 127 132
e 127 133
e 127 134
e 127 135
e 127 171
e 127 184
e 127 196
e 127 206
e 127 217
e 127 230
e 127 257
e 127 274
e 128 129
e 128 130
e 128 131
e 128 132
e 128 133
e 128 134
e 128 135
e 128 142
e 128 156
e 128 172
e 128 185
e 128 218
e 128 231
e 128 244
e 128 258
e 129 130
e 129 131
e 129 132
e 129 133
e 129 134
e 129 135
e 129 143
e 129 157
e 129 173
e 129 186
e 129 219
e 129 245
e 129 259
e 129 275
e 130 131
e 130 132
e 130 133
e 130 134
e 130 135
e 130 144
e 130 158
e 130 174
e 130 187
e 130 207
e 130 232
e 130 246
e 130 260
e 131 132
e 131 133
e 131 134
e 131 135
e 131 145
e 131 159
e 131 175
e 131 188
e 131 208
e 131 233
e 131 261
e 131 276
e 132 133
e 132 134
e 132 135
e 132 160
e 132 176
e 132 189
e 132 209
e 132 234
e 132 262
e 132 277
e 133 134
e 133 135
e 133 147
e 133 163
e 133 198
e 133 211
e 133 236
e 133 249
e 133 264
e 133 279
e 134 135
e 134 148
e 134 165
e 134 190
e 134 212
e 134 223
e 134 251
e 134 266
e 134 281
e 135 149
e 135 166
e 135 191
e 135 200
e 135 237
e 135 252
e 136 137
e 136 138
e 136 139
e 136 140
e 136 141
e 136 142
e 136 143
e 136 144
e 136 145
e 136 146
e 136 147
e 136 148
e 136 149
e 136 167
e 136 179
e 136 213
e 136 224
e 136 238
e 136 253
e 137 138
e 137 139
e 137 140
e 137 141
e 137 142
e 137 143
e 137 144
e 137 145
e 137 146
e 137 147
e 137 148
e 137 149
e 137 150
e 137 192
e 137 201
e 137 239
e 137 267
e 138 139
e 138 140
e 138 141
e 138 142
e 138 143
e 138 144
e 138 145
e 138 146
e 138 147
e 138 148
e 138 149
e 138 152
e 138 181
e 138 202
e 138 226
e 138 269
e 139 140
e 139 141
e 139 142
e 139 143
e 139 144
e 139 145
e 139 146
e 139 147
e 139 148
e 139 149
e 139 153
e 139 168
e 139 193
e 139 203
e 139 214
e 139 227
e 139 240
e 139 270
e 140 141
e 140 142
e 140 143
e 140 144
e 140 145
e 140 146
e 140 147
e 140 148
e 140 149
e 140 154
e 140 170
e 140 183
e 140 215
e 140 228
e 140 242
e 140 272
e 141 142
e 141 143
e 141 144
e 141 145
e 141 146
e 141 147
e 141 148
e 141 149
e 141 205
e 141 216
e 141 243
e 141 256
e 142 143
e 142 144
e 142 145
e 142 146
e 142 147
e 142 148
e 142 149
e 142 156
e 142 172
e 142 185
e 142 218
e 142 231
e 142 244
e 142 258
e 143 144
e 143 145
e 143 146
e 143 147
e 143 148
e 143 149
e 143 157
e 143 173
e 143 186
e 143 219
e 143 245
e 143 259
e 143 275
e 144 145
e 144 146
e 144 147
e 144 148
e 144 149
e 144 158
e 144 174
e 144 187
e 144 207
e 144 232
e 144 246
e 144 260
e 145 146
e 145 147
e 145 148
e 145 149
e 145 159
e 145 175
e 145 188
e 145 208
e 145 233
e 145 261
e 145 276
e 146 147
e 146 148
e 146 149
e 146 161
e 146 220
e 146 235
e 146 247
e 146 263
e 146 278
e 147 148
e 147 149
e 147 163
e 147 198
e 147 211
e 147 236
e 147 249
e 147 264
e 147 279
e 148 149
e 148 165
e 148 190
e 148 212
e 148 223
e 148 251
e 148 266
e 148 281
e 149 166
e 149 191
e 149 200
e 149 237
e 149 252
e 150 151
e 150 152
e 150 153
e 150 154
e 150 155
e 150 156
e 150 157
e 150 158
e 150 159
e 150 160
e 150 161
e 150 162
e 150 163
e 150 164
e 150 165
e 150 166
e 150 192
e 150 201
e 150 239
e 150 267
e 151 152
e 151 153
e 151 154
e 151 155
e 151 156
e 151 157
e 151 158
e 151 159
e 151 160
e 151 161
e 151 162
e 151 163
e 151 164
e 151 165
e 151 166
e 151 180
e 151 225
e 151 254
e 151 268
e 152 153
e 152 154
e 152 155
e 152 156
e 152 157
e 152 158
e 152 159
e 152 160
e 152 161
e 152 162
e 152 163
e 152 164
e 152 165
e 152 166
e 152 181
e 152 202
e 152 226
e 152 269
e 153 154
e 153 155
e 153 156
e 153 157
e 153 158
e 153 159
e 153 160
e 153 161
e 153 162
e 153 163
e 153 164
e 153 165
e 153 166
e 153 168
e 153 193
e 153 203
e 153 214
e 153 227
e 153 240
e 153 270
e 154 155
e 154 156
e 154 157
e 154 158
e 154 159
e 154 160
e 154 161
e 154 162
e 154 163
e 154 164
e 154 165
e 154 166
e 154 170
e 154 183
e 154 215
e 154 228
e 154 242
e 154 272
e 155 156
e 155 157
e 155 158
e 155 159
e 155 160
e 155 161
e 155 162
e 155 163
e 155 164
e 155 165
e 155 166
e 155 195
e 155 204
e 155 229
e 155 255
e 155 273
e 156 157
e 156 158
e 156 159
e 156 160
e 156 161
e 156 162
e 156 163
e 156 164
e 156 165
e 156 166
e 156 172
e 156 185
e 156 218
e 156 231
e 156 244
e 156 258
e 157 158
e 157 159
e 157 160
e 157 161
e 157 162
e 157 163
e 157 164
e 157 165
e 157 166
e 157 173
e 157 186
e 157 219
e 157 245
e 157 259
e 157 275
e 158 159
e 158 160
e 158 161
e 158 162
e 158 163
e 158 164
e 158 165
e 158 166
e 158 174
e 158 187
e 158 207
e 158 232
e 158 246
e 158 260
e 159 160
e 159 161
e 159 162
e 159 163
e 159 164
e 159 165
e 159 166
e 159 175
e 159 188
e 159 208
e 159 233
e 159 261
e 159 276
e 160 161
e 160 162
e 160 163
e 160 164
e 160 165
e 160 166
e 160 176
e 160 189
e 160 209
e 160 234
e 160 262
e 160 277
e 161 162
e 161 163
e 161 164
e 161 165
e 161 166
e 161 220
e 161 235
e 161 247
e 161 263
e 161 278
e 162 163
e 162 164
e 162 165
e 162 166
e 162 177
e 162 197
e 162 210
e 162 221
e 162 248
e 163 164
e 163 165
e 163 166
e 163 198
e 163 211
e 163 236
e 163 249
e 163 264
e 163 279
e 164 165
e 164 166
e 164 178
e 164 199
e 164 222
e 164 250
e 164 265
e 164 280
e 165 166
e 165 190
e 165 212
e 165 223
e 165 251
e 165 266
e 165 281
e 166 191
e 166 200
e 166 237
e 166 252
e 167 168
e 167 169
e 167 170
e 167 171
e 167 172
e 167 173
e 167 174
e 167 175
e 167 176
e 167 177
e 167 178
e 167 179
e 167 213
e 167 224
e 167 238
e 167 253
e 168 169
e 168 170
e 168 171
e 168 172
e 168 173
e 168 174
e 168 175
e 168 176
e 168 177
e 168 178
e 168 193
e 168 203
e 168 214
e 168 227
e 168 240
e 168 270
e 169 170
e 169 171
e 169 172
e 169 173
e 169 174
e 169 175
e 169 176
e 169 177
e 169 178
e 169 182
e 169 194
e 169 241
e 169 271
e 170 171
e 170 172
e 170 173
e 170 174
e 170 175
e 170 176
e 170 177
e 170 178
e 170 183
e 170 215
e 170 228
e 170 242
e 170 272
e 171 172
e 171 173
e 171 174
e 171 175
e 171 176
e 171 177
e 171 178
e 171 184
e 171 196
e 171 206
e 171 217
e 171 230
e 171 257
e 171 274
e 172 173
e 172 174
e 172 175
e 172 176
e 172 177
e 172 178
e 172 185
e 172 218
e 172 231
e 172 244
e 172 258
e 173 174
e 173 175
e 173 176
e 173 177
e 173 178
e 173 186
e 173 219
e 173 245
e 173 259
e 173 275
e 174 175
e 174 176
e 174 177
e 174 178
e 174 187
e 174 207
e 174 232
e 174 246
e 174 260
e 175 176
e 175 177
e 175 178
e 175 188
e 175 208
e 175 233
e 175 261
e 175 276
e 176 177
e 176 178
e 176 189
e 176 209
e 176 234
e 176 262
e 176 277
e 177 178
e 177 197
e 177 210
e 177 221
e 177 248
e 178 199
e 178 222
e 178 250
e 178 265
e 178 280
e 179 180
e 179 181
e 179 182
e 179 183
e 179 184
e 179 185
e 179 186
e 179 187
e 179 188
e 179 189
e 179 190
e 179 191
e 179 213
e 179 224
e 179 238
e 179 253
e 180 181
e 180 182
e 180 183
e 180 184
e 180 185
e 180 186
e 180 187
e 180 188
e 180 189
e 180 190
e 180 191
e 180 225
e 180 254
e 180 268
e 181 182
e 181 183
e 181 184
e 181 185
e 181 186
e 181 187
e 181 188
e 181 189
e 181 190
e 181 191
e 181 202
e 181 226
e 181 269
e 182 183
e 182 184
e 182 185
e 182 186
e 182 187
e 182 188
e 182 189
e 182 190
e 182 191
e 182 194
e 182 241
e 182 271
e 183 184
e 183 185
e 183 186
e 183 187
e 183 188
e 183 189
e 183 190
e 183 191
e 183 215
e 183 228
e 183 242
e 183 272
e 184 185
e 184 186
e 184 187
e 184 188
e 184 189
e 184 190
e 184 191
e 184 196
e 184 206
e 184 217
e 184 230
e 184 257
e 184 274
e 185 186
e 185 187
e 185 188
e 185 189
e 185 190
e 185 191
e 185 218
e 185 231
e 185 244
e 185 258
e 186 187
e 186 188
e 186 189
e 186 190
e 186 191
e 186 219
e 186 245
e 186 259
e 186 275
e 187 188
e 187 189
e 187 190
e 187 191
e 187 207
e 187 232
e 187 246
e 187 260
e 188 189
e 188 190
e 188 191
e 188 208
e 188 233
e 188 261
e 188 276
e 189 190
e 189 191
e 189 209
e 189 234
e 189 262
e 189 277
e 190 191
e 190 212
e 190 223
e 190 251
e 190 266
e 190 281
e 191 200
e 191 237
e 191 252
e 192 193
e 192 194
e 192 195
e 192 196
e 192 197
e 192 198
e 192 199
e 192 200
e 192 201
e 192 239
e 192 267
e 193 194
e 193 195
e 193 196
e 193 197
e 193 198
e 193 199
e 193 200
e 193 203
e 193 214
e 193 227
e 193 240
e 193 270
e 194 195
e 194 196
e 194 197
e 194 198
e 194 199
e 194 200
e 194 241
e 194 271
e 195 196
e 195 197
e 195 198
e 195 199
e 195 200
e 195 204
e 195 229
e 195 255
e 195 273
e 196 197
e 196 198
e 196 199
e 196 200
e 196 206
e 196 217
e 196 230
e 196 257
e 196 274
e 197 198
e 197 199
e 197 200
e 197 210
e 197 221
e 197 248
e 198 199
e 198 200
e 198 211
e 198 236
e 198 249
e 198 264
e 198 279
e 199 200
e 199 222
e 199 250
e 199 265
e 199 280
e 200 237
e 200 252
e 201 202
e 201 203
e 201 204
e 201 205
e 201 206
e 201 207
e 201 208
e 201 209
e 201 210
e 201 211
e 201 212
e 201 239
e 201 267
e 202 203
e 202 204
e 202 205
e 202 206
e 202 207
e 202 208
e 202 209
e 202 210
e 202 211
e 202 212
e 202 226
e 202 269
e 203 204
e 203 205
e 203 206
e 203 207
e 203 208
e 203 209
e 203 210
e 203 211
e 203 212
e 203 214
e 203 227
e 203 240
e 203 270
e 204 205
e 204 206
e 204 207
e 204 208
e 204 209
e 204 210
e 204 211
e 204 212
e 204 229
e 204 255
e 204 273
e 205 206
e 205 207
e 205 208
e 205 209
e 205 210
e 205 211
e 205 212
e 205 216
e 205 243
e 205 256
e 206 207
e 206 208
e 206 209
e 206 210
e 206 211
e 206 212
e 206 217
e 206 230
e 206 257
e 206 274
e 207 208
e 207 209
e 207 210
e 207 211
e 207 212
e 207 232
e 207 246
e 207 260
e 208 209
e 208 210
e 208 211
e 208 212
e 208 233
e 208 261
e 208 276
e 209 210
e 209 211
e 209 212
e 209 234
e 209 262
e 209 277
e 210 211
e 210 212
e 210 221
e 210 248
e 211 212
e 211 236
e 211 249
e 211 264
e 211 279
e 212 223
e 212 251
e 212 266
e 212 281
e 213 214
e 213 215
e 213 216
e 213 217
e 213 218
e 213 219
e 213 220
e 213 221
e 213 222
e 213 223
e 213 224
e 213 238
e 213 253
e 214 215
e 214 216
e 214 217
e 214 218
e 214 219
e 214 220
e 214 221
e 214 222
e 214 223
e 214 227
e 214 240
e 214 270
e 215 216
e 215 217
e 215 218
e 215 219
e 215 220
e 215 221
e 215 222
e 215 223
e 215 228
e 215 242
e 215 272
e 216 217
e 216 218
e 216 219
e 216 220
e 216 221
e 216 222
e 216 223
e 216 243
e 216 256
e 217 218
e 217 219
e 217 220
e 217 221
e 217 222
e 217 223
e 217 230
e 217 257
e 217 274
e 218 219
e 218 220
e 218 221
e 218 222
e 218 223
e 218 231
e 218 244
e 218 258
e 219 220
e 219 221
e 219 222
e 219 223
e 219 245
e 219 259
e 219 275
e 220 221
e 220 222
e 220 223
e 220 235
e 220 247
e 220 263
e 220 278
e 221 222
e 221 223
e 221 248
e 222 223
e 222 250
e 222 265
e 222 280
e 223 251
e 223 266
e 223 281
e 224 225
e 224 226
e 224 227
e 224 228
e 224 229
e 224 230
e 224 231
e 224 232
e 224 233
e 224 234
e 224 235
e 224 236
e 224 237
e 224 238
e 224 253
e 225 226
e 225 227
e 225 228
e 225 229
e 225 230
e 225 231
e 225 232
e 225 233
e 225 234
e 225 235
e 225 236
e 225 237
e 225 254
e 225 268
e 226 227
e 226 228
e 226 229
e 226 230
e 226 231
e 226 232
e 226 233
e 226 234
e 226 235
e 226 236
e 226 237
e 226 269
e 227 228
e 227 229
e 227 230
e 227 231
e 227 232
e 227 233
e 227 234
e 227 235
e 227 236
e 227 237
e 227 240
e 227 270
e 228 229
e 228 230
e 228 231
e 228 232
e 228 233
e 228 234
e 228 235
e 228 236
e 228 237
e 228 242
e 228 272
e 229 230
e 229 231
e 229 232
e 229 233
e 229 234
e 229 235
e 229 236
e 229 237
e 229 255
e 229 273
e 230 231
e 230 232
e 230 233
e 230 234
e 230 235
e 230 236
e 230 237
e 230 257
e 230 274
e 231 232
e 231 233
e 231 234
e 231 235
e 231 236
e 231 237
e 231 244
e 231 258
e 232 233
e 232 234
e 232 235
e 232 236
e 232 237
e 232 246
e 232 260
e 233 234
e 233 235
e 233 236
e 233 237
e 233 261
e 233 276
e 234 235
e 234 236
e 234 237
e 234 262
e 234 277
e 235 236
e 235 237
e 235 247
e 235 263
e 235 278
e 236 237
e 236 249
e 236 264
e 236 279
e 237 252
e 238 239
e 238 240
e 238 241
e 238 242
e 238 243
e 238 244
e 238 245
e 238 246
e 238 247
e 238 248
e 238 249
e 238 250
e 238 251
e 238 252
e 238 253
e 239 240
e 239 241
e 239 242
e 239 243
e 239 244
e 239 245
e 239 246
e 239 247
e 239 248
e 239 249
e 239 250
e 239 251
e 239 252
e 239 267
e 240 241
e 240 242
e 240 243
e 240 244
e 240 245
e 240 246
e 240 247
e 240 248
e 240 249
e 240 250
e 240 251
e 240 252
e 240 270
e 241 242
e 241 243
e 241 244
e 241 245
e 241 246
e 241 247
e 241 248
e 241 249
e 241 250
e 241 251
e 241 252
e 241 271
e 242 243
e 242 244
e 242 245
e 242 246
e 242 247
e 242 248
e 242 249
e 242 250
e 242 251
e 242 252
e 242 272
e 243 244
e 243 245
e 243 246
e 243 247
e 243 248
e 243 249
e 243 250
e 243 251
e 243 252
e 243 256
e 244 245
e 244 246
e 244 247
e 244 248
e 244 249
e 244 250
e 244 251
e 244 252
e 244 258
e 245 246
e 245 247
e 245 248
e 245 249
e 245 250
e 245 251
e 245 252
e 245 259
e 245 275
e 246 247
e 246 248
e 246 249
e 246 250
e 246 251
e 246 252
e 246 260
e 247 248
e 247 249
e 247 250
e 247 251
e 247 252
e 247 263
e 247 278
e 248 249
e 248 250
e 248 251
e 248 252
e 249 250
e 249 251
e 249 252
e 249 264
e 249 279
e 250 251
e 250 252
e 250 265
e 250 280
e 251 252
e 251 266
e 251 281
e 253 254
e 253 255
e 253 256
e 253 257
e 253 258
e 253 259
e 253 260
e 253 261
e 253 262
e 253 263
e 253 264
e 253 265
e 253 266
e 254 255
e 254 256
e 254 257
e 254 258
e 254 259
e 254 260
e 254 261
e 254 262
e 254 263
e 254 264
e 254 265
e 254 266
e 254 268
e 255 256
e 255 257
e 255 258
e 255 259
e 255 260
e 255 261
e 255 262
e 255 263
e 255 264
e 255 265
e 255 266
e 255 273
e 256 257
e 256 258
e 256 259
e 256 260
e 256 261
e 256 262
e 256 263
e 256 264
e 256 265
e 256 266
e 257 258
e 257 259
e 257 260
e 257 261
e 257 262
e 257 263
e 257 264
e 257 265
e 257 266
e 257 274
e 258 259
e 258 260
e 258 261
e 258 262
e 258 263
e 258 264
e 258 265
e 258 266
e 259 260
e 259 261
e 259 262
e 259 263
e 259 264
e 259 265
e 259 266
e 259 275
e 260 261
e 260 262
e 260 263
e 260 264
e 260 265
e 260 266
e 261 262
e 261 263
e 261 264
e 261 265
e 261 266
e 261 276
e 262 263
e 262 264
e 262 265
e 262 266
e 262 277
e 263 264
e 263 265
e 263 266
e 263 278
e 264 265
e 264 266
e 264 279
e 265 266
e 265 280
e 266 281
e 267 268
e 267 269
e 267 270
e 267 271
e 267 272
e 267 273
e 267 274
e 267 275
e 267 276
e 267 277
e 267 278
e 267 279
e 267 280
e 267 281
e 268 269
e 268 270
e 268 271
e 268 272
e 268 273
e 268 274
e 268 275
e 268 276
e 268 277
e 268 278
e 268 279
e 268 280
e 268 281
e 269 270
e 269 271
e 269 272
e 269 273
e 269 274
e 269 275
e 269 276
e 269 277
e 269 278
e 269 279
e 269 280
e 269 281
e 270 271
e 270 272
e 270 273
e 270 274
e 270 275
e 270 276
e 270 277
e 270 278
e 270 279
e 270 280
e 270 281
e 271 272
e 271 273
e 271 274
e 271 275
e 271 276
e 271 277
e 271 278
e 271 279
e 271 280
e 271 281
e 272 273
e 272 274
e 272 275
e 272 276
e 272 277
e 272 278
e 272 279
e 272 280
e 272 281
e 273 274
e 273 275
e 273 276
e 273 277
e 273 278
e 273 279
e 273 280
e 273 281
e 274 275
e 274 276
e 274 277
e 274 278
e 274 279
e 274 280
e 274 281
e 275 276
e 275 277
e 275 278
e 275 279
e 275 280
e 275 281
e 276 277
e 276 278
e 276 279
e 276 280
e 276 281
e 277 278
e 277 279
e 277 280
e 277 281
e 278 279
e 278 280
e 278 281
e 279 280
e 279 281
e 280 281
